NAME: instance_1713
TYPE: TSP
DIMENSION: 20
EDGE_WEIGHT_TYPE: EUC_2D
NODE_COORD_SECTION
0 46.29 35.28
1 38.63 22.86
2 25.88 75.96
3 15.51 4.32
4 48.26 67.53
5 61.73 9.04
6 99.79 2.77
7 7.11 50.09
8 79.35 24.65
9 51.00 58.74
10 12.41 10.98
11 30.80 96.06
12 27.19 51.08
13 28.76 22.38
14 35.72 54.19
15 6.93 37.24
16 8.71 88.26
17 44.34 79.99
18 80.50 12.00
19 57.43 6.96
EOF
